NAME: SCAIL238_2112_31
COMMENT: Generated as the SCAIL100 dataset for the MIM2025 SCLDC Challenge
TYPE: Multi-Depot CVRP
DEPOTS: 2
DIMENSION: 240
EDGE_WEIGHT_TYPE: EUC_2D
CAPACITY: 6

NODE_COORD_SECTION 
1    782  402 
2    144  700 
3    315  734 
4    967  59  
5    455  412 
6    807  49  
7    656  838 
8    979  97  
9    747  376 
10   827  485 
11   388  593 
12   483  629 
13   548  749 
14   982  377 
15   413  915 
16   775  291 
17   450  278 
18   502  651 
19   531  962 
20   405  493 
21   866  647 
22   139  236 
23   248  982 
24   458  538 
25   25   260 
26   251  389 
27   710  491 
28   98   686 
29   807  524 
30   911  728 
31   843  584 
32   999  767 
33   903  314 
34   851  5   
35   601  248 
36   689  480 
37   196  965 
38   314  554 
39   807  197 
40   110  815 
41   422  209 
42   201  116 
43   465  207 
44   320  817 
45   342  585 
46   384  596 
47   718  372 
48   816  742 
49   587  724 
50   553  786 
51   226  785 
52   31   88  
53   101  894 
54   97   808 
55   874  155 
56   497  141 
57   420  49  
58   45   956 
59   728  775 
60   510  626 
61   705  188 
62   289  456 
63   52   858 
64   223  212 
65   582  401 
66   428  224 
67   333  136 
68   43   873 
69   327  870 
70   284  881 
71   34   837 
72   307  910 
73   973  115 
74   198  338 
75   752  543 
76   142  150 
77   335  254 
78   969  840 
79   535  801 
80   487  59  
81   573  638 
82   209  435 
83   461  769 
84   48   316 
85   741  222 
86   629  472 
87   58   958 
88   551  882 
89   312  664 
90   69   494 
91   396  407 
92   750  435 
93   501  783 
94   722  245 
95   958  558 
96   418  230 
97   846  744 
98   29   943 
99   151  856 
100  611  978 
101  652  122 
102  349  203 
103  525  536 
104  961  847 
105  329  353 
106  238  244 
107  42   269 
108  316  810 
109  252  215 
110  667  284 
111  620  709 
112  567  465 
113  192  21  
114  489  683 
115  977  421 
116  604  38  
117  331  279 
118  357  243 
119  184  364 
120  856  323 
121  515  411 
122  922  695 
123  398  207 
124  344  300 
125  931  890 
126  0    283 
127  49   868 
128  388  279 
129  917  180 
130  934  251 
131  462  957 
132  984  218 
133  983  198 
134  44   142 
135  678  62  
136  571  711 
137  302  95  
138  401  373 
139  724  203 
140  491  776 
141  205  343 
142  275  752 
143  555  504 
144  593  314 
145  137  208 
146  383  712 
147  291  931 
148  726  880 
149  224  493 
150  788  962 
151  815  442 
152  700  934 
153  120  274 
154  549  207 
155  945  628 
156  693  218 
157  859  906 
158  245  219 
159  800  481 
160  889  449 
161  791  170 
162  906  639 
163  232  536 
164  887  305 
165  215  410 
166  562  63  
167  858  690 
168  120  20  
169  38   33  
170  454  393 
171  355  762 
172  875  114 
173  199  734 
174  847  916 
175  685  408 
176  144  78  
177  665  347 
178  941  797 
179  619  145 
180  778  437 
181  746  503 
182  878  265 
183  180  46  
184  575  731 
185  908  211 
186  382  928 
187  747  422 
188  166  730 
189  879  367 
190  678  560 
191  908  412 
192  381  627 
193  509  996 
194  212  144 
195  61   976 
196  815  385 
197  580  885 
198  426  598 
199  812  615 
200  909  511 
201  240  172 
202  11   99  
203  838  478 
204  91   476 
205  858  456 
206  221  67  
207  684  121 
208  144  784 
209  795  992 
210  299  706 
211  992  255 
212  758  33  
213  427  34  
214  445  833 
215  662  666 
216  210  338 
217  304  714 
218  39   904 
219  849  785 
220  628  51  
221  451  559 
222  822  484 
223  280  265 
224  666  828 
225  963  313 
226  157  304 
227  791  313 
228  177  197 
229  607  95  
230  135  127 
231  567  907 
232  23   505 
233  380  126 
234  702  3   
235  329  633 
236  700  890 
237  674  185 
238  819  341 
239  115  789 
240  548  237 

DEMAND_SECTION
1    0   
2    0   
3    1   
4    1   
5    1   
6    1   
7    1   
8    1   
9    1   
10   1   
11   1   
12   1   
13   1   
14   1   
15   1   
16   1   
17   1   
18   1   
19   1   
20   1   
21   1   
22   1   
23   1   
24   1   
25   1   
26   1   
27   1   
28   1   
29   1   
30   1   
31   1   
32   1   
33   1   
34   1   
35   1   
36   1   
37   1   
38   1   
39   1   
40   1   
41   1   
42   1   
43   1   
44   1   
45   1   
46   1   
47   1   
48   1   
49   1   
50   1   
51   1   
52   1   
53   1   
54   1   
55   1   
56   1   
57   1   
58   1   
59   1   
60   1   
61   1   
62   1   
63   1   
64   1   
65   1   
66   1   
67   1   
68   1   
69   1   
70   1   
71   1   
72   1   
73   1   
74   1   
75   1   
76   1   
77   1   
78   1   
79   1   
80   1   
81   1   
82   1   
83   1   
84   1   
85   1   
86   1   
87   1   
88   1   
89   1   
90   1   
91   1   
92   1   
93   1   
94   1   
95   1   
96   1   
97   1   
98   1   
99   1   
100  1   
101  1   
102  1   
103  1   
104  1   
105  1   
106  1   
107  1   
108  1   
109  1   
110  1   
111  1   
112  1   
113  1   
114  1   
115  1   
116  1   
117  1   
118  1   
119  1   
120  1   
121  1   
122  1   
123  1   
124  1   
125  1   
126  1   
127  1   
128  1   
129  1   
130  1   
131  1   
132  1   
133  1   
134  1   
135  1   
136  1   
137  1   
138  1   
139  1   
140  1   
141  1   
142  1   
143  1   
144  1   
145  1   
146  1   
147  1   
148  1   
149  1   
150  1   
151  1   
152  1   
153  1   
154  1   
155  1   
156  1   
157  1   
158  1   
159  1   
160  1   
161  1   
162  1   
163  1   
164  1   
165  1   
166  1   
167  1   
168  1   
169  1   
170  1   
171  1   
172  1   
173  1   
174  1   
175  1   
176  1   
177  1   
178  1   
179  1   
180  1   
181  1   
182  1   
183  1   
184  1   
185  1   
186  1   
187  1   
188  1   
189  1   
190  1   
191  1   
192  1   
193  1   
194  1   
195  1   
196  1   
197  1   
198  1   
199  1   
200  1   
201  1   
202  1   
203  1   
204  1   
205  1   
206  1   
207  1   
208  1   
209  1   
210  1   
211  1   
212  1   
213  1   
214  1   
215  1   
216  1   
217  1   
218  1   
219  1   
220  1   
221  1   
222  1   
223  1   
224  1   
225  1   
226  1   
227  1   
228  1   
229  1   
230  1   
231  1   
232  1   
233  1   
234  1   
235  1   
236  1   
237  1   
238  1   
239  1   
240  1   

DEPOT_SECTION
1    782  402 
2    144  700 
-1
EOF
